RT is False
Default write of storage_offers_DA.csv just to have a file (but constraint should be inactive)
Reading model...
...model read.
creating competitive generators file...
...competitive generators recorded.
Loading data...
.. day-ahead data read.
Compiling instance...
...instance created.
Creating Offer Mitigation (model will solve as dispatch if TRUE)...
NOTE: storage offers will not be mitigated
...storage offer mitigation file created
Converting model to MPEC...
...converted
NOTE: initial MIP solve with only storage competitive to get feasible solution
Solving...

Welcome to IBM(R) ILOG(R) CPLEX(R) Interactive Optimizer 12.9.0.0
  with Simplex, Mixed Integer & Barrier Optimizers
5725-A06 5725-A29 5724-Y48 5724-Y49 5724-Y54 5724-Y55 5655-Y21
Copyright IBM Corp. 1988, 2019.  All Rights Reserved.

Type 'help' for a list of available commands.
Type 'help' followed by a command name for more
information on commands.

CPLEX> Logfile 'cplex.log' closed.
Logfile 'C:\Users\Luke\Desktop\test919\logs\tmpi442_mgy.cplex.log' open.
CPLEX> New value for parallel optimization mode: -1
CPLEX> New value for mixed integer optimality gap tolerance: 0.01
CPLEX> New value for integrality tolerance: 1e-09
CPLEX> New value for feasibility tolerance: 0.01
CPLEX> New value for deterministic time limit in ticks: 75000
CPLEX> Problem 'C:\Users\Luke\Desktop\test919\logs\tmp898mdkhj.pyomo.lp' read.
Read time = 0.20 sec. (14.73 ticks)
CPLEX> Problem name         : C:\Users\Luke\Desktop\test919\logs\tmp898mdkhj.pyomo.lp
Objective sense      : Maximize
Variables            :   53805  [Nneg: 1,  Box: 22000,  Free: 4464,
                                 Binary: 27340]
Objective nonzeros   :    9110
Linear constraints   :  123205  [Less: 41346,  Greater: 59096,  Equal: 22763]
  Nonzeros           :  291834
  RHS nonzeros       :   67572

Variables            : Min LB: -5000.000        Max UB: 1000000.       
Objective nonzeros   : Min   : 0.1000000        Max   : 2500.000       
Linear constraints   :
  Nonzeros           : Min   : 0.1000000        Max   : 1000000.       
  RHS nonzeros       : Min   : 0.1000000        Max   : 1000000.       
CPLEX> CPXPARAM_Parallel                                -1
CPXPARAM_Simplex_Tolerances_Feasibility          0.01
CPXPARAM_DetTimeLimit                            75000
CPXPARAM_MIP_Tolerances_MIPGap                   0.01
CPXPARAM_MIP_Tolerances_Integrality              1.0000000000000001e-09
Tried aggregator 3 times.
MIP Presolve eliminated 88341 rows and 18739 columns.
MIP Presolve added 3451 rows and 0 columns.
MIP Presolve modified 24885 coefficients.
Aggregator did 12953 substitutions.
Reduced MIP has 25362 rows, 21631 columns, and 72135 nonzeros.
Reduced MIP has 8547 binaries, 0 generals, 0 SOSs, and 0 indicators.
Presolve time = 0.22 sec. (176.61 ticks)
Probing fixed 404 vars, tightened 2941 bounds.
Probing time = 1.50 sec. (914.21 ticks)
Tried aggregator 2 times.
MIP Presolve eliminated 918 rows and 808 columns.
MIP Presolve modified 2294 coefficients.
Aggregator did 38 substitutions.
Reduced MIP has 24406 rows, 20785 columns, and 69377 nonzeros.
Reduced MIP has 8143 binaries, 0 generals, 0 SOSs, and 0 indicators.
Presolve time = 0.09 sec. (72.97 ticks)
Probing time = 0.03 sec. (16.89 ticks)
Clique table members: 6320.
MIP emphasis: balance optimality and feasibility.
MIP search method: dynamic search.
Parallel mode: opportunistic, using up to 24 threads.
Root relaxation solution time = 0.39 sec. (302.98 ticks)

        Nodes                                         Cuts/
   Node  Left     Objective  IInf  Best Integer    Best Bound    ItCnt     Gap

      0     0      886.1547  2247                    886.1547     7031         
      0     0      886.1387   698                   Cuts: 875     7448         
      0     0      871.8743   490                   Cuts: 638     7707         
      0     0      871.8743   409                   Cuts: 360     7823         
      0     0      852.3941   391                    Cuts: 81     7876         
      0     0      852.2746   385                    Cuts: 79     7899         
      0     0      852.2746   383                    Cuts: 21     7912         
      0     0      852.2746   381                    Cuts: 19     7914         
      0    20    infeasible                       Impl Bds: 1     8209         
Elapsed time = 10.08 sec. (6645.86 ticks, tree = 0.02 MB, solutions = 0)
    399   224     -763.1519   354                    835.5340     9382         
    689   606   -36020.3183   367                    835.5340    12495         
   1209   697   -37221.2149   339                    835.5340    13466         
   1823  1514      478.2610   323                    835.5340    23180         
   2279  1721   -39709.4127   291                    835.5340    25870         
   2825  2478   -11995.3649   344                    835.5340    30579         
   3589  3085      724.6317   234                    835.5340    31082         
   4186  3502      799.1488   350                    835.5340    32057         
   4760  4097    infeasible                          835.5340    38642         
   7519  6083      639.3424   171                    835.5340    45321         
Elapsed time = 18.94 sec. (9748.43 ticks, tree = 52.72 MB, solutions = 0)
*  8849  7065      integral     0      524.2421      835.5340    46324   59.38%
*  9581  7477      integral     0      723.8948      835.5340    47033   15.42%
* 10504     0      integral     0      723.8948                  54074     --- 

GUB cover cuts applied:  1
Clique cuts applied:  50
Cover cuts applied:  9
Implied bound cuts applied:  98
Flow cuts applied:  480
Mixed integer rounding cuts applied:  155
Gomory fractional cuts applied:  52

Root node processing (before b&c):
  Real time             =    9.72 sec. (6636.38 ticks)
Parallel b&c, 24 threads:
  Real time             =   12.44 sec. (4956.46 ticks)
  Sync time (average)   =    0.21 sec.
  Wait time (average)   =    0.00 sec.
                          ------------
Total (root+branch&cut) =   22.16 sec. (11592.83 ticks)

Solution pool: 5 solutions saved.

MIP - Integer optimal solution:  Objective =  7.2389482146e+02
Solution time =   22.16 sec.  Iterations = 54074  Nodes = 10504
Deterministic time = 11592.99 ticks  (523.24 ticks/sec)

CPLEX> Incumbent solution written to file 'C:\Users\Luke\Desktop\test919\logs\tmp08aumk3p.cplex.sol'.
CPLEX> NOTE: no warmstart specified for MIP iteration, default behavior is true
NOTE: resolving with all competitive generators using storage-only solution to warmstart
Solving...

Welcome to IBM(R) ILOG(R) CPLEX(R) Interactive Optimizer 12.9.0.0
  with Simplex, Mixed Integer & Barrier Optimizers
5725-A06 5725-A29 5724-Y48 5724-Y49 5724-Y54 5724-Y55 5655-Y21
Copyright IBM Corp. 1988, 2019.  All Rights Reserved.

Type 'help' for a list of available commands.
Type 'help' followed by a command name for more
information on commands.

CPLEX> Logfile 'cplex.log' closed.
Logfile 'C:\Users\Luke\Desktop\test919\logs\tmp0n4p5h1j.cplex.log' open.
CPLEX> New value for parallel optimization mode: -1
CPLEX> New value for mixed integer optimality gap tolerance: 0.01
CPLEX> New value for integrality tolerance: 1e-09
CPLEX> New value for feasibility tolerance: 0.01
CPLEX> New value for deterministic time limit in ticks: 75000
CPLEX> Problem 'C:\Users\Luke\Desktop\test919\logs\tmpc2k834jq.pyomo.lp' read.
Read time = 0.20 sec. (14.75 ticks)
CPLEX> MIP start file 'C:\Users\Luke\Desktop\test919\logs\tmp7jjhcn88.cplex.mst' read.
CPLEX> Problem name         : C:\Users\Luke\Desktop\test919\logs\tmpc2k834jq.pyomo.lp
Objective sense      : Maximize
Variables            :   54525  [Nneg: 1,  Box: 22720,  Free: 4464,
                                 Binary: 27340]
Objective nonzeros   :    9830
Linear constraints   :  123205  [Less: 41346,  Greater: 59096,  Equal: 22763]
  Nonzeros           :  291834
  RHS nonzeros       :   67572

Variables            : Min LB: -5000.000        Max UB: 1000000.       
Objective nonzeros   : Min   : 0.1000000        Max   : 2500.000       
Linear constraints   :
  Nonzeros           : Min   : 0.1000000        Max   : 1000000.       
  RHS nonzeros       : Min   : 0.1000000        Max   : 1000000.       
CPLEX> CPXPARAM_Parallel                                -1
CPXPARAM_Simplex_Tolerances_Feasibility          0.01
CPXPARAM_DetTimeLimit                            75000
CPXPARAM_MIP_Tolerances_MIPGap                   0.01
CPXPARAM_MIP_Tolerances_Integrality              1.0000000000000001e-09
Warning:  No solution found from 1 MIP starts.
Retaining values of one MIP start for possible repair.
Tried aggregator 3 times.
MIP Presolve eliminated 88341 rows and 19459 columns.
MIP Presolve added 3451 rows and 0 columns.
MIP Presolve modified 24885 coefficients.
Aggregator did 12953 substitutions.
Reduced MIP has 25362 rows, 21631 columns, and 72135 nonzeros.
Reduced MIP has 8547 binaries, 0 generals, 0 SOSs, and 0 indicators.
Presolve time = 0.23 sec. (176.97 ticks)
Probing fixed 404 vars, tightened 2941 bounds.
Probing time = 1.50 sec. (914.21 ticks)
Tried aggregator 2 times.
MIP Presolve eliminated 918 rows and 808 columns.
MIP Presolve modified 2294 coefficients.
Aggregator did 38 substitutions.
Reduced MIP has 24406 rows, 20785 columns, and 69377 nonzeros.
Reduced MIP has 8143 binaries, 0 generals, 0 SOSs, and 0 indicators.
Presolve time = 0.08 sec. (72.97 ticks)
Probing time = 0.03 sec. (16.89 ticks)
Clique table members: 6320.
MIP emphasis: balance optimality and feasibility.
MIP search method: dynamic search.
Parallel mode: opportunistic, using up to 24 threads.
Root relaxation solution time = 0.39 sec. (302.98 ticks)

        Nodes                                         Cuts/
   Node  Left     Objective  IInf  Best Integer    Best Bound    ItCnt     Gap

      0     0      886.1547  2247                    886.1547     7031         
      0     0      886.1387   698                   Cuts: 875     7448         
      0     0      871.8743   490                   Cuts: 638     7707         
      0     0      871.8743   409                   Cuts: 360     7823         
      0     0      852.3941   391                    Cuts: 81     7876         
      0     0      852.2746   385                    Cuts: 79     7899         
      0     0      852.2746   383                    Cuts: 21     7912         
      0     0      852.2746   381                    Cuts: 19     7914         
Repair heuristic found nothing.
      0     4    infeasible                       Impl Bds: 1     7937         
Elapsed time = 10.22 sec. (6688.98 ticks, tree = 0.02 MB, solutions = 0)
    417   114    -2286.8647   343                    835.5340     9085         
    756   596     -674.2781   353                    835.5340    13945         
   1224   710      644.6322   325                    835.5340    19617         
   1840   854   -40774.2667   337                    835.5340    21369         
   2428  1630      655.7458   298                    835.5340    27308         
   3151  2609   -37231.2062   266                    835.5340    32687         
   3877  2802   -37029.8581   266                    835.5340    32903         
   4618  4138   -11849.3540   318                    835.5340    34379         
   5351  4439   -38159.9966   257                    835.5340    36257         
*  8242+ 3798                         -231.9646      835.5340           460.20%
Elapsed time = 18.58 sec. (9606.50 ticks, tree = 31.91 MB, solutions = 1)
*  9491  3937      integral     0      245.8501      835.5340    41194  239.86%
*  9681  3973      integral     0      639.3581      835.5340    41293   30.68%
* 10276  1793      integral     0      639.3581      639.3581    52097    0.00%

GUB cover cuts applied:  3
Clique cuts applied:  12
Cover cuts applied:  7
Implied bound cuts applied:  51
Flow cuts applied:  83
Mixed integer rounding cuts applied:  138
Gomory fractional cuts applied:  60

Root node processing (before b&c):
  Real time             =    9.81 sec. (6674.06 ticks)
Parallel b&c, 24 threads:
  Real time             =   14.11 sec. (6113.99 ticks)
  Sync time (average)   =    0.20 sec.
  Wait time (average)   =    0.00 sec.
                          ------------
Total (root+branch&cut) =   23.92 sec. (12788.05 ticks)

Solution pool: 5 solutions saved.

MIP - Integer optimal solution:  Objective =  6.3935814999e+02
Solution time =   23.92 sec.  Iterations = 52097  Nodes = 10276
Deterministic time = 12788.21 ticks  (534.60 ticks/sec)

CPLEX> Incumbent solution written to file 'C:\Users\Luke\Desktop\test919\logs\tmpue_ejfm0.cplex.sol'.
CPLEX> Exporting results... 
